c   nvars nclauses
p cnf 11 20
c a b c d e f g h i  j  x
c 1 2 3 4 5 6 7 8 9 10 11
2 -6 0
3 -6 0
-2 -3 6 0
-1 10 0
-7 10 0
1 7 -10 0
4 -11 0
5 -11 0
-4 -5 11 0
6 8 0
11 8 0
-6 -8 -11 0
6 7 0
-6 -7 0
-7 -9 0
-8 -9 0
7 8 9 0
-8 0
-9 0
-10 0
